data/solutions/planning/wellformed/hard/weighting/wellformed_hard_instance13_gurobi.sol
Elapsed time: 26.6
Nodes explored: 28712
Nodes left: 13333
Relative gap: 0.007
Upper bound: 21805747.0
Lower bound: 21804159
C[0]=21316.0
C[1]=21316.0
C[2]=21314.0
C[3]=21314.0
C[4]=21314.0
C[5]=21314.0
C[6]=21314.0
C[7]=21314.0
C[8]=21313.0
C[9]=21305.0
y[0]=0
y[1]=9
y[2]=4
y[3]=8
y[4]=0
y[5]=2
y[6]=7
y[7]=9
y[8]=1
y[9]=5
y[10]=5
y[11]=8
y[12]=8
y[13]=9
y[14]=4
y[15]=4
y[16]=3
y[17]=6
y[18]=8
y[19]=4
y[20]=3
y[21]=1
y[22]=3
y[23]=0
y[24]=3
y[25]=4
y[26]=6
y[27]=6
y[28]=8
y[29]=0
y[30]=2
y[31]=1
y[32]=0
y[33]=0
y[34]=6
y[35]=0
y[36]=9
y[37]=5
y[38]=9
y[39]=0
y[40]=5
y[41]=2
y[42]=8
y[43]=0
y[44]=1
y[45]=1
y[46]=4
y[47]=6
y[48]=5
y[49]=3
y[50]=3
y[51]=4
y[52]=5
y[53]=3
y[54]=9
y[55]=9
y[56]=0
y[57]=8
y[58]=2
y[59]=3
y[60]=7
y[61]=3
y[62]=7
y[63]=0
y[64]=5
y[65]=3
y[66]=9
y[67]=1
y[68]=6
y[69]=5
y[70]=7
y[71]=0
y[72]=6
y[73]=1
y[74]=3
y[75]=6
y[76]=5
y[77]=9
y[78]=2
y[79]=9
y[80]=1
y[81]=7
y[82]=8
y[83]=0
y[84]=5
y[85]=8
y[86]=9
y[87]=2
y[88]=3
y[89]=4
y[90]=7
y[91]=3
y[92]=9
y[93]=9
y[94]=8
y[95]=7
y[96]=7
y[97]=9
y[98]=6
y[99]=7
y[100]=6
y[101]=3
y[102]=9
y[103]=7
y[104]=3
y[105]=8
y[106]=7
y[107]=9
y[108]=0
y[109]=3
y[110]=4
y[111]=1
y[112]=5
y[113]=0
y[114]=4
y[115]=7
y[116]=9
y[117]=5
y[118]=6
y[119]=2
y[120]=9
y[121]=7
y[122]=2
y[123]=1
y[124]=5
y[125]=5
y[126]=9
y[127]=1
y[128]=7
y[129]=9
y[130]=4
y[131]=1
y[132]=9
y[133]=0
y[134]=1
y[135]=0
y[136]=3
y[137]=1
y[138]=3
y[139]=0
y[140]=9
y[141]=7
y[142]=8
y[143]=0
y[144]=0
y[145]=7
y[146]=0
y[147]=8
y[148]=5
y[149]=1
y[150]=1
y[151]=6
y[152]=5
y[153]=9
y[154]=4
y[155]=3
y[156]=4
y[157]=9
y[158]=9
y[159]=3
y[160]=9
y[161]=1
y[162]=4
y[163]=9
y[164]=0
y[165]=7
y[166]=5
y[167]=9
y[168]=9
y[169]=0
y[170]=6
y[171]=2
y[172]=1
y[173]=4
y[174]=8
y[175]=6
y[176]=9
y[177]=9
y[178]=7
y[179]=5
y[180]=5
y[181]=1
y[182]=5
y[183]=8
y[184]=5
y[185]=9
y[186]=2
y[187]=5
y[188]=1
y[189]=9
y[190]=4
y[191]=1
y[192]=3
y[193]=9
y[194]=6
y[195]=5
y[196]=3
y[197]=9
y[198]=0
y[199]=6
y[200]=7
y[201]=2
y[202]=0
y[203]=8
y[204]=7
y[205]=0
y[206]=8
y[207]=9
y[208]=7
y[209]=8
y[210]=6
y[211]=9
y[212]=8
y[213]=9
y[214]=9
y[215]=2
y[216]=2
y[217]=7
y[218]=8
y[219]=7
y[220]=4
y[221]=9
y[222]=4
y[223]=1
y[224]=9
y[225]=0
y[226]=6
y[227]=2
y[228]=6
y[229]=7
y[230]=2
y[231]=9
y[232]=1
y[233]=9
y[234]=9
y[235]=9
y[236]=6
y[237]=2
y[238]=5
y[239]=9
y[240]=4
y[241]=0
y[242]=6
y[243]=2
y[244]=6
y[245]=6
y[246]=1
y[247]=3
y[248]=0
y[249]=3
y[250]=9
y[251]=3
y[252]=5
y[253]=0
y[254]=8
y[255]=9
y[256]=9
y[257]=1
y[258]=0
y[259]=8
y[260]=9
y[261]=5
y[262]=3
y[263]=9
y[264]=0
y[265]=8
y[266]=1
y[267]=4
y[268]=8
y[269]=1
y[270]=8
y[271]=6
y[272]=3
y[273]=3
y[274]=0
y[275]=9
y[276]=4
y[277]=4
y[278]=0
y[279]=8
y[280]=5
y[281]=9
y[282]=2
y[283]=7
y[284]=9
y[285]=1
y[286]=4
y[287]=7
y[288]=2
y[289]=9
y[290]=5
y[291]=1
y[292]=5
y[293]=2
y[294]=5
y[295]=1
y[296]=2
y[297]=3
y[298]=7
y[299]=2
y[300]=7
y[301]=2
y[302]=6
y[303]=0
y[304]=7
y[305]=9
y[306]=1
y[307]=3
y[308]=0
y[309]=4
y[310]=2
y[311]=8
y[312]=2
y[313]=6
y[314]=9
y[315]=4
y[316]=7
y[317]=0
y[318]=4
y[319]=4
y[320]=0
y[321]=4
y[322]=7
y[323]=9
y[324]=2
y[325]=9
y[326]=2
y[327]=2
y[328]=9
y[329]=0
y[330]=8
y[331]=6
y[332]=8
y[333]=9
y[334]=0
y[335]=0
y[336]=0
y[337]=4
y[338]=0
y[339]=1
y[340]=0
y[341]=9
y[342]=2
y[343]=8
y[344]=9
y[345]=9
y[346]=5
y[347]=2
y[348]=5
y[349]=6
y[350]=5
y[351]=9
y[352]=1
y[353]=3
y[354]=2
y[355]=7
y[356]=0
y[357]=5
y[358]=3
y[359]=9
y[360]=6
y[361]=5
y[362]=8
y[363]=9
y[364]=0
y[365]=0
y[366]=0
y[367]=0
y[368]=1
y[369]=2
y[370]=9
y[371]=4
y[372]=4
y[373]=2
y[374]=9
y[375]=9
y[376]=3
y[377]=8
y[378]=7
y[379]=6
y[380]=5
y[381]=3
y[382]=6
y[383]=5
y[384]=2
y[385]=5
y[386]=8
y[387]=2
y[388]=5
y[389]=1
y[390]=4
y[391]=9
y[392]=9
y[393]=9
y[394]=6
y[395]=6
y[396]=9
y[397]=9
y[398]=5
y[399]=6
